4 
5  21 43 59 
6  13 22 27 32 37 43 47 53 57 
7  02 07 12 17 22 28 32 38 42 47 52 57 
8  02 07 12 17 22 27 32 37 42 47 52 57 
9  02 07 12 17 22 30 37 45 52 
10  00 08 16 23 31 40 47 55 
11  02 10 17 25 32 40 47 55 
12  02 10 17 25 32 40 47 55 
13  02 10 17 25 32 40 47 55 
14  02 10 17 25 32 40 47 56 
15  03 08 13 18 23 28 32 38 43 47 53 58 
16  02 08 13 17 23 28 32 38 43 47 53 58 
17  02 08 13 17 23 28 32 38 43 47 53 58 
18  02 08 13 17 23 28 32 38 43 47 53 58 
19  02 08 13 22 27 34 41 49 57 
20  04 13 22 31 39 46 53 
21  01 09 16 24 31 39 46 54 
22  01 13 28 43 58 
23  13 28 43 
0 
